(set-info :smt-lib-version 2.6)
(set-info :category "crafted")
(set-logic QF_FF)
(define-sort FF0 () (_ FiniteField 52435875175126190479447740508185965837690552500527637822603658699938581184513))
(declare-fun a () Bool)
(declare-fun b () Bool)
(declare-fun d () Bool)
(declare-fun c () Bool)
(declare-fun out () FF0)
(declare-fun _148 () FF0)
(declare-fun _61 () FF0)
(declare-fun _147 () FF0)
(declare-fun _105 () FF0)
(declare-fun _146 () FF0)
(declare-fun _139 () FF0)
(declare-fun _145 () FF0)
(declare-fun _80 () FF0)
(declare-fun _144 () FF0)
(declare-fun _141 () FF0)
(declare-fun _120 () FF0)
(declare-fun _82 () FF0)
(declare-fun _0 () FF0)
(declare-fun _75 () FF0)
(declare-fun _74 () FF0)
(declare-fun _138 () FF0)
(declare-fun _81 () FF0)
(declare-fun _137 () FF0)
(declare-fun _97 () FF0)
(declare-fun _136 () FF0)
(declare-fun _54 () FF0)
(declare-fun _135 () FF0)
(declare-fun _112 () FF0)
(declare-fun _111 () FF0)
(declare-fun _134 () FF0)
(declare-fun _57 () FF0)
(declare-fun _133 () FF0)
(declare-fun _114 () FF0)
(declare-fun _132 () FF0)
(declare-fun _106 () FF0)
(declare-fun _131 () FF0)
(declare-fun _119 () FF0)
(declare-fun _130 () FF0)
(declare-fun _129 () FF0)
(declare-fun _126 () FF0)
(declare-fun _125 () FF0)
(declare-fun _128 () FF0)
(declare-fun _55 () FF0)
(declare-fun _66 () FF0)
(declare-fun _65 () FF0)
(declare-fun _85 () FF0)
(declare-fun _26 () FF0)
(declare-fun _118 () FF0)
(declare-fun _89 () FF0)
(declare-fun _117 () FF0)
(declare-fun _116 () FF0)
(declare-fun _115 () FF0)
(declare-fun _87 () FF0)
(declare-fun _6 () FF0)
(declare-fun _103 () FF0)
(declare-fun _27 () FF0)
(declare-fun _25 () FF0)
(declare-fun _35 () FF0)
(declare-fun _34 () FF0)
(declare-fun _98 () FF0)
(declare-fun _102 () FF0)
(declare-fun _101 () FF0)
(declare-fun _38 () FF0)
(declare-fun _60 () FF0)
(declare-fun _96 () FF0)
(declare-fun _94 () FF0)
(declare-fun _93 () FF0)
(declare-fun _1 () FF0)
(declare-fun _39 () FF0)
(declare-fun _69 () FF0)
(declare-fun _79 () FF0)
(declare-fun _50 () FF0)
(declare-fun _78 () FF0)
(declare-fun _43 () FF0)
(declare-fun _14 () FF0)
(declare-fun _3 () FF0)
(declare-fun _46 () FF0)
(declare-fun _7 () FF0)
(declare-fun _44 () FF0)
(declare-fun _42 () FF0)
(declare-fun _41 () FF0)
(declare-fun _40 () FF0)
(declare-fun _24 () FF0)
(declare-fun _29 () FF0)
(declare-fun _12 () FF0)
(declare-fun _11 () FF0)
(declare-fun _23 () FF0)
(declare-fun _22 () FF0)
(declare-fun _21 () FF0)
(declare-fun _20 () FF0)
(declare-fun _19 () FF0)
(declare-fun _18 () FF0)
(declare-fun _17 () FF0)
(declare-fun _2 () FF0)
(declare-fun _16 () FF0)
(declare-fun _15 () FF0)
(declare-fun _5 () FF0)
(declare-fun _4 () FF0)
(assert 
  (let ((let0 a))
  (let ((let1 b))
  (let ((let2 d))
  (let ((let3 c))
  (let ((let4 (and let0 let3 let2 let0)))
  (let ((let5 (ite let4 let1 let1)))
  (let ((let6 (or let5 let0)))
  (let ((let7 (ite let3 let4 let5)))
  (let ((let8 (=> let2 let1)))
  (let ((let9 (and let6 let8 let3 let3 let7 let8 let4 let8 let7 let6 let4)))
  (let ((let10 (=> let9 let5)))
  (let ((let11 (=> let7 let10)))
  (let ((let12 (= let11 let6)))
  (let ((let13 (= let5 let7)))
  (let ((let14 (ite let2 let9 let13)))
  (let ((let15 (not let14)))
  (let ((let16 (or let14 let9)))
  (let ((let17 (ite let16 let16 let16)))
  (let ((let18 (or let13 let17)))
  (let ((let19 (or let13 let14 let9 let14 let18)))
  (let ((let20 (= let19 let2)))
  (let ((let21 (= let20 let20)))
  (let ((let22 (and let21 let15)))
  (let ((let23 (= let22 let12)))
  (let ((let24 (not let18)))
  (let ((let25 (not let17)))
  (let ((let26 (= let6 let19)))
  (let ((let27 (not let26)))
  (let ((let28 (not let10)))
  (let ((let29 (or let28 let27)))
  (let ((let30 (= let29 let25)))
  (let ((let31 (= let30 let17)))
  (let ((let32 (not let31)))
  (let ((let33 (=> let32 let24)))
  (let ((let34 (=> let33 let23)))
  (let ((let35 (ite let26 let2 let0)))
  (let ((let36 (not let35)))
  (let ((let37 (= let36 let8)))
  (let ((let38 (ite let18 let19 let26)))
  (let ((let39 (not let38)))
  (let ((let40 (and let25 let24 let27 let39)))
  (let ((let41 (=> let40 let37)))
  (let ((let42 (= let41 let21)))
  (let ((let43 (not let24)))
  (let ((let44 (or let43 let43)))
  (let ((let45 (not let43)))
  (let ((let46 (= let45 let44)))
  (let ((let47 (or let1 let35)))
  (let ((let48 (ite let41 let47 let46)))
  (let ((let49 (and let48 let42 let33)))
  (let ((let50 (= let38 let16)))
  (let ((let51 (not let30)))
  (let ((let52 (or let32 let51 let12 let50)))
  (let ((let53 (not let52)))
  (let ((let54 (and let53 let49)))
  (let ((let55 (= let50 let15)))
  (let ((let56 (ite let55 let22 let28)))
  (let ((let57 (=> let12 let52)))
  (let ((let58 (or let4 let46 let51 let35 let44 let47)))
  (let ((let59 (= let44 let11)))
  (let ((let60 (ite let31 let36 let59)))
  (let ((let61 (=> let29 let39)))
  (let ((let62 (or let51 let61 let60)))
  (let ((let63 (and let62 let58 let55 let57 let31 let21 let56 let29 let49 let41 let38)))
  (let ((let64 (not let40)))
  (let ((let65 (= let0 let42)))
  (let ((let66 (not let59)))
  (let ((let67 (and let66 let65 let64 let63 let54 let34)))
  (let ((let68 out))
  (let ((let69 (as ff1 FF0)))
  (let ((let70 (= let69 let68)))
  (let ((let71 (= let70 let67)))
  (let ((let72 (as ff0 FF0)))
  (let ((let73 (= let72 let68)))
  (let ((let74 (or let70 let73)))
  (let ((let75 (and let74 let71)))
  (let ((let76 _148))
  (let ((let77 (= let76 let68)))
  (let ((let78 _61))
  (let ((let79 _147))
  (let ((let80 (ff.mul let79 let78)))
  (let ((let81 (= let80 let76)))
  (let ((let82 _105))
  (let ((let83 _146))
  (let ((let84 (ff.mul let83 let82)))
  (let ((let85 (= let84 let79)))
  (let ((let86 _139))
  (let ((let87 _145))
  (let ((let88 (ff.mul let87 let86)))
  (let ((let89 (= let88 let83)))
  (let ((let90 (as ff52435875175126190479447740508185965837690552500527637822603658699938581184512 FF0)))
  (let ((let91 _80))
  (let ((let92 (ff.mul let91 let90)))
  (let ((let93 (ff.add let92 let69)))
  (let ((let94 _144))
  (let ((let95 (ff.mul let94 let93)))
  (let ((let96 (= let95 let87)))
  (let ((let97 _141))
  (let ((let98 (ff.mul let97 let90)))
  (let ((let99 (ff.add let98 let69)))
  (let ((let100 _120))
  (let ((let101 (ff.mul let100 let99)))
  (let ((let102 (= let101 let94)))
  (let ((let103 _82))
  (let ((let104 _0))
  (let ((let105 (ff.add let104 let103 let90)))
  (let ((let106 (ff.mul let105 let105)))
  (let ((let107 (= let106 let97)))
  (let ((let108 _75))
  (let ((let109 _74))
  (let ((let110 (ff.add let109 let108)))
  (let ((let111 _138))
  (let ((let112 (ff.mul let111 let110)))
  (let ((let113 (= let112 let86)))
  (let ((let114 _81))
  (let ((let115 _137))
  (let ((let116 (ff.mul let115 let114)))
  (let ((let117 (= let116 let111)))
  (let ((let118 _97))
  (let ((let119 _136))
  (let ((let120 (ff.mul let119 let118)))
  (let ((let121 (= let120 let115)))
  (let ((let122 _54))
  (let ((let123 _135))
  (let ((let124 (ff.mul let123 let122)))
  (let ((let125 (= let124 let119)))
  (let ((let126 _112))
  (let ((let127 _111))
  (let ((let128 (ff.add let127 let126)))
  (let ((let129 _134))
  (let ((let130 (ff.mul let129 let128)))
  (let ((let131 (= let130 let123)))
  (let ((let132 _57))
  (let ((let133 (ff.mul let132 let90)))
  (let ((let134 (ff.add let133 let69)))
  (let ((let135 _133))
  (let ((let136 (ff.mul let135 let134)))
  (let ((let137 (= let136 let129)))
  (let ((let138 _114))
  (let ((let139 _132))
  (let ((let140 (ff.mul let139 let138)))
  (let ((let141 (= let140 let135)))
  (let ((let142 _106))
  (let ((let143 (ff.mul let142 let90)))
  (let ((let144 (ff.add let143 let69)))
  (let ((let145 _131))
  (let ((let146 (ff.mul let145 let144)))
  (let ((let147 (= let146 let139)))
  (let ((let148 _119))
  (let ((let149 _130))
  (let ((let150 (ff.mul let149 let148)))
  (let ((let151 (= let150 let145)))
  (let ((let152 (ff.mul let149 let90)))
  (let ((let153 _129))
  (let ((let154 _126))
  (let ((let155 _125))
  (let ((let156 (ff.add let155 let154 let153 let152)))
  (let ((let157 (ff.add let155 let154)))
  (let ((let158 (ff.mul let153 let157)))
  (let ((let159 (= let158 let156)))
  (let ((let160 (ff.mul let153 let90)))
  (let ((let161 _128))
  (let ((let162 _55))
  (let ((let163 (ff.add let162 let161 let160)))
  (let ((let164 (ff.mul let162 let161)))
  (let ((let165 (= let164 let163)))
  (let ((let166 (as ff2 FF0)))
  (let ((let167 (ff.mul let161 let90)))
  (let ((let168 (ff.mul let108 let90)))
  (let ((let169 (ff.mul let109 let90)))
  (let ((let170 (ff.mul let122 let90)))
  (let ((let171 (ff.add let170 let169 let168 let167 let166)))
  (let ((let172 (ff.add let169 let168 let69)))
  (let ((let173 (ff.add let170 let69)))
  (let ((let174 (ff.mul let173 let172)))
  (let ((let175 (= let174 let171)))
  (let ((let176 (ff.mul let100 let90)))
  (let ((let177 (ff.add let176 let69)))
  (let ((let178 (ff.mul let132 let177)))
  (let ((let179 (= let178 let154)))
  (let ((let180 _66))
  (let ((let181 (ff.mul let180 let90)))
  (let ((let182 _65))
  (let ((let183 (ff.mul let182 let90)))
  (let ((let184 (ff.add let183 let181 let69)))
  (let ((let185 (ff.mul let134 let184)))
  (let ((let186 (= let185 let155)))
  (let ((let187 _85))
  (let ((let188 _26))
  (let ((let189 (ff.mul let188 let90)))
  (let ((let190 (ff.add let189 let187)))
  (let ((let191 (ff.mul let190 let190)))
  (let ((let192 (= let191 let100)))
  (let ((let193 (ff.mul let148 let90)))
  (let ((let194 _118))
  (let ((let195 _89))
  (let ((let196 (ff.add let195 let194 let193)))
  (let ((let197 (ff.mul let194 let195)))
  (let ((let198 (= let197 let196)))
  (let ((let199 (ff.mul let194 let90)))
  (let ((let200 _117))
  (let ((let201 (ff.add let187 let200 let199)))
  (let ((let202 (ff.mul let200 let187)))
  (let ((let203 (= let202 let201)))
  (let ((let204 (ff.mul let200 let90)))
  (let ((let205 _116))
  (let ((let206 (ff.add let182 let180 let205 let204)))
  (let ((let207 (ff.add let182 let180)))
  (let ((let208 (ff.mul let205 let207)))
  (let ((let209 (= let208 let206)))
  (let ((let210 (ff.mul let205 let90)))
  (let ((let211 _115))
  (let ((let212 (ff.add let162 let211 let210)))
  (let ((let213 (ff.mul let211 let162)))
  (let ((let214 (= let213 let212)))
  (let ((let215 (ff.mul let211 let90)))
  (let ((let216 _87))
  (let ((let217 (ff.mul let216 let90)))
  (let ((let218 _6))
  (let ((let219 (ff.add let218 let217 let215 let69)))
  (let ((let220 (ff.add let217 let69)))
  (let ((let221 (ff.mul let218 let220)))
  (let ((let222 (= let221 let219)))
  (let ((let223 (ff.mul let138 let90)))
  (let ((let224 _103))
  (let ((let225 _27))
  (let ((let226 (ff.add let225 let224 let223)))
  (let ((let227 (ff.mul let225 let224)))
  (let ((let228 (= let227 let226)))
  (let ((let229 _25))
  (let ((let230 (ff.mul let229 let90)))
  (let ((let231 (ff.add let230 let69)))
  (let ((let232 (ff.mul let142 let231)))
  (let ((let233 (= let232 let126)))
  (let ((let234 _35))
  (let ((let235 (ff.mul let234 let90)))
  (let ((let236 _34))
  (let ((let237 (ff.mul let236 let90)))
  (let ((let238 (ff.add let237 let235 let69)))
  (let ((let239 (ff.mul let144 let238)))
  (let ((let240 (= let239 let127)))
  (let ((let241 _98))
  (let ((let242 (ff.mul let241 let90)))
  (let ((let243 (ff.add let236 let234 let242)))
  (let ((let244 (ff.mul let243 let243)))
  (let ((let245 (= let244 let142)))
  (let ((let246 (ff.mul let224 let90)))
  (let ((let247 (ff.add let246 let69)))
  (let ((let248 (ff.mul let247 let118)))
  (let ((let249 (= let248 let82)))
  (let ((let250 _102))
  (let ((let251 (ff.add let242 let250 let246 let69)))
  (let ((let252 (ff.add let242 let69)))
  (let ((let253 (ff.mul let250 let252)))
  (let ((let254 (= let253 let251)))
  (let ((let255 (ff.mul let250 let90)))
  (let ((let256 _101))
  (let ((let257 (ff.mul let225 let90)))
  (let ((let258 (ff.add let257 let256 let255 let69)))
  (let ((let259 (ff.add let257 let69)))
  (let ((let260 (ff.mul let256 let259)))
  (let ((let261 (= let260 let258)))
  (let ((let262 (ff.mul let256 let90)))
  (let ((let263 (ff.add let162 let132 let262)))
  (let ((let264 (ff.mul let132 let162)))
  (let ((let265 (= let264 let263)))
  (let ((let266 _38))
  (let ((let267 (ff.mul let266 let90)))
  (let ((let268 (ff.add let267 let109 let108)))
  (let ((let269 (ff.mul let268 let268)))
  (let ((let270 (= let269 let241)))
  (let ((let271 _60))
  (let ((let272 _96))
  (let ((let273 (ff.mul let272 let271)))
  (let ((let274 (= let273 let118)))
  (let ((let275 (ff.mul let103 let90)))
  (let ((let276 (ff.add let275 let69)))
  (let ((let277 _94))
  (let ((let278 _93))
  (let ((let279 (ff.add let278 let277)))
  (let ((let280 (ff.mul let279 let276)))
  (let ((let281 (= let280 let272)))
  (let ((let282 (ff.mul let114 let90)))
  (let ((let283 (ff.add let282 let69)))
  (let ((let284 (ff.mul let283 let220)))
  (let ((let285 (= let284 let277)))
  (let ((let286 (ff.mul let114 let195)))
  (let ((let287 (= let286 let278)))
  (let ((let288 (ff.mul let195 let90)))
  (let ((let289 _1))
  (let ((let290 (ff.add let289 let182 let180 let288)))
  (let ((let291 (ff.mul let289 let207)))
  (let ((let292 (= let291 let290)))
  (let ((let293 (ff.mul let187 let90)))
  (let ((let294 _39))
  (let ((let295 (ff.mul let294 let90)))
  (let ((let296 (ff.add let295 let293 let69)))
  (let ((let297 (ff.mul let296 let296)))
  (let ((let298 (= let297 let216)))
  (let ((let299 (ff.mul let294 let166)))
  (let ((let300 (ff.add let299 let293)))
  (let ((let301 (ff.mul let294 let294)))
  (let ((let302 (= let301 let300)))
  (let ((let303 (ff.add let114 let90)))
  (let ((let304 (ff.mul let303 let303)))
  (let ((let305 (= let304 let103)))
  (let ((let306 _69))
  (let ((let307 (ff.mul let306 let90)))
  (let ((let308 (ff.add let307 let92 let282 let166)))
  (let ((let309 (ff.add let307 let69)))
  (let ((let310 (ff.mul let93 let309)))
  (let ((let311 (= let310 let308)))
  (let ((let312 _79))
  (let ((let313 (ff.mul let312 let172)))
  (let ((let314 (= let313 let91)))
  (let ((let315 _50))
  (let ((let316 _78))
  (let ((let317 (ff.mul let316 let315)))
  (let ((let318 (= let317 let312)))
  (let ((let319 (ff.add let295 let69)))
  (let ((let320 (ff.add let267 let69)))
  (let ((let321 (ff.mul let320 let319)))
  (let ((let322 (= let321 let316)))
  (let ((let323 _43))
  (let ((let324 (ff.mul let294 let323)))
  (let ((let325 (= let324 let109)))
  (let ((let326 _14))
  (let ((let327 (ff.mul let326 let90)))
  (let ((let328 (ff.add let327 let183 let181 let69)))
  (let ((let329 (ff.mul let328 let328)))
  (let ((let330 (= let329 let306)))
  (let ((let331 (ff.mul let315 let104)))
  (let ((let332 (= let331 let180)))
  (let ((let333 _3))
  (let ((let334 (ff.mul let315 let90)))
  (let ((let335 (ff.add let334 let69)))
  (let ((let336 (ff.mul let335 let333)))
  (let ((let337 (= let336 let182)))
  (let ((let338 (ff.mul let78 let90)))
  (let ((let339 (ff.mul let271 let90)))
  (let ((let340 _46))
  (let ((let341 (ff.mul let340 let90)))
  (let ((let342 (ff.add let341 let339 let338 let166)))
  (let ((let343 (ff.add let341 let69)))
  (let ((let344 (ff.add let339 let69)))
  (let ((let345 (ff.mul let344 let343)))
  (let ((let346 (= let345 let342)))
  (let ((let347 (ff.add let295 let133 let339 let166)))
  (let ((let348 (ff.mul let134 let319)))
  (let ((let349 (= let348 let347)))
  (let ((let350 (ff.mul let162 let90)))
  (let ((let351 (ff.add let267 let350 let69)))
  (let ((let352 (ff.mul let351 let351)))
  (let ((let353 (= let352 let132)))
  (let ((let354 (ff.add let266 let122 let90)))
  (let ((let355 (ff.mul let354 let354)))
  (let ((let356 (= let355 let162)))
  (let ((let357 (ff.add let230 let315 let170 let69)))
  (let ((let358 (ff.mul let231 let315)))
  (let ((let359 (= let358 let357)))
  (let ((let360 (ff.mul let323 let90)))
  (let ((let361 _7))
  (let ((let362 (ff.add let361 let360)))
  (let ((let363 (ff.mul let362 let362)))
  (let ((let364 (= let363 let315)))
  (let ((let365 (ff.add let225 let237 let235)))
  (let ((let366 (ff.mul let365 let365)))
  (let ((let367 (= let366 let340)))
  (let ((let368 _44))
  (let ((let369 (ff.mul let333 let90)))
  (let ((let370 (ff.add let369 let323)))
  (let ((let371 (ff.mul let370 let370)))
  (let ((let372 (= let371 let368)))
  (let ((let373 _42))
  (let ((let374 (ff.add let294 let373 let360)))
  (let ((let375 (ff.mul let373 let294)))
  (let ((let376 (= let375 let374)))
  (let ((let377 (ff.mul let373 let90)))
  (let ((let378 _41))
  (let ((let379 (ff.add let236 let234 let378 let377)))
  (let ((let380 (ff.add let236 let234)))
  (let ((let381 (ff.mul let378 let380)))
  (let ((let382 (= let381 let379)))
  (let ((let383 (ff.mul let378 let90)))
  (let ((let384 _40))
  (let ((let385 _24))
  (let ((let386 (ff.add let385 let384 let383)))
  (let ((let387 (ff.mul let384 let385)))
  (let ((let388 (= let387 let386)))
  (let ((let389 (ff.mul let384 let90)))
  (let ((let390 _29))
  (let ((let391 (ff.mul let390 let90)))
  (let ((let392 (ff.add let391 let236 let234 let389 let69)))
  (let ((let393 (ff.add let391 let69)))
  (let ((let394 (ff.mul let393 let380)))
  (let ((let395 (= let394 let392)))
  (let ((let396 (ff.add let391 let266 let295 let69)))
  (let ((let397 (ff.mul let393 let266)))
  (let ((let398 (= let397 let396)))
  (let ((let399 (ff.add let385 let236 let234 let267)))
  (let ((let400 (ff.mul let380 let385)))
  (let ((let401 (= let400 let399)))
  (let ((let402 (ff.add let369 let69)))
  (let ((let403 (ff.mul let402 let393)))
  (let ((let404 (= let403 let234)))
  (let ((let405 (ff.mul let333 let385)))
  (let ((let406 (= let405 let236)))
  (let ((let407 _12))
  (let ((let408 (ff.mul let407 let90)))
  (let ((let409 _11))
  (let ((let410 (ff.mul let409 let90)))
  (let ((let411 (ff.add let289 let410 let408)))
  (let ((let412 (ff.mul let411 let411)))
  (let ((let413 (= let412 let390)))
  (let ((let414 (ff.mul let361 let90)))
  (let ((let415 (ff.add let414 let188)))
  (let ((let416 (ff.mul let415 let415)))
  (let ((let417 (= let416 let225)))
  (let ((let418 (ff.add let410 let408 let229 let189 let69)))
  (let ((let419 (ff.add let410 let408 let69)))
  (let ((let420 (ff.mul let419 let229)))
  (let ((let421 (= let420 let418)))
  (let ((let422 (ff.mul let385 let90)))
  (let ((let423 (ff.add let289 let422 let230 let69)))
  (let ((let424 (ff.add let422 let69)))
  (let ((let425 (ff.mul let424 let289)))
  (let ((let426 (= let425 let423)))
  (let ((let427 _23))
  (let ((let428 (ff.mul let427 let218)))
  (let ((let429 (= let428 let385)))
  (let ((let430 _22))
  (let ((let431 (ff.mul let430 let361)))
  (let ((let432 (= let431 let427)))
  (let ((let433 (ff.add let409 let407)))
  (let ((let434 _21))
  (let ((let435 (ff.mul let434 let433)))
  (let ((let436 (= let435 let430)))
  (let ((let437 _20))
  (let ((let438 (ff.mul let437 let326)))
  (let ((let439 (= let438 let434)))
  (let ((let440 _19))
  (let ((let441 (ff.mul let440 let218)))
  (let ((let442 (= let441 let437)))
  (let ((let443 _18))
  (let ((let444 (ff.mul let443 let326)))
  (let ((let445 (= let444 let440)))
  (let ((let446 _17))
  (let ((let447 (ff.mul let446 let433)))
  (let ((let448 (= let447 let443)))
  (let ((let449 _2))
  (let ((let450 _16))
  (let ((let451 (ff.mul let450 let449)))
  (let ((let452 (= let451 let446)))
  (let ((let453 _15))
  (let ((let454 (ff.mul let453 let449)))
  (let ((let455 (= let454 let450)))
  (let ((let456 (ff.mul let361 let326)))
  (let ((let457 (= let456 let453)))
  (let ((let458 (ff.add let289 let369 let327 let69)))
  (let ((let459 (ff.mul let402 let289)))
  (let ((let460 (= let459 let458)))
  (let ((let461 (ff.mul let449 let90)))
  (let ((let462 (ff.add let461 let69)))
  (let ((let463 (ff.mul let462 let289)))
  (let ((let464 (= let463 let407)))
  (let ((let465 (ff.mul let449 let218)))
  (let ((let466 (= let465 let409)))
  (let ((let467 (ff.add let104 let289 let414)))
  (let ((let468 (ff.mul let289 let104)))
  (let ((let469 (= let468 let467)))
  (let ((let470 _5))
  (let ((let471 (ff.mul let470 let104)))
  (let ((let472 (= let471 let218)))
  (let ((let473 _4))
  (let ((let474 (ff.mul let473 let333)))
  (let ((let475 (= let474 let470)))
  (let ((let476 (ff.mul let104 let449)))
  (let ((let477 (= let476 let473)))
  (let ((let478 (ff.mul let333 let333)))
  (let ((let479 (= let478 let333)))
  (let ((let480 (ff.mul let449 let449)))
  (let ((let481 (= let480 let449)))
  (let ((let482 (ff.mul let289 let289)))
  (let ((let483 (= let482 let289)))
  (let ((let484 (ff.mul let104 let104)))
  (let ((let485 (= let484 let104)))
  (let ((let486 (and let485 let483 let481 let479 let477 let475 let472 let469 let466 let464 let460 let457 let455 let452 let448 let445 let442 let439 let436 let432 let429 let426 let421 let417 let413 let406 let404 let401 let398 let395 let388 let382 let376 let372 let367 let364 let359 let356 let353 let349 let346 let337 let332 let330 let325 let322 let318 let314 let311 let305 let302 let298 let292 let287 let285 let281 let274 let270 let265 let261 let254 let249 let245 let240 let233 let228 let222 let214 let209 let203 let198 let192 let186 let179 let175 let165 let159 let151 let147 let141 let137 let131 let125 let121 let117 let113 let107 let102 let96 let89 let85 let81 let77)))
  (let ((let487 (ite let3 let69 let72)))
  (let ((let488 (= let449 let487)))
  (let ((let489 (ite let2 let69 let72)))
  (let ((let490 (= let333 let489)))
  (let ((let491 (ite let1 let69 let72)))
  (let ((let492 (= let289 let491)))
  (let ((let493 (ite let0 let69 let72)))
  (let ((let494 (= let104 let493)))
  (let ((let495 (and let494 let492 let490 let488)))
  (let ((let496 (and let495 let486)))
  (let ((let497 (=> let496 let75)))
  (let ((let498 (not let497)))
  let498
)))))))))))))))))))))))))))))))))))))))))))))))))))))))))))))))))))))))))))))))))))))))))))))))))))))))))))))))))))))))))))))))))))))))))))))))))))))))))))))))))))))))))))))))))))))))))))))))))))))))))))))))))))))))))))))))))))))))))))))))))))))))))))))))))))))))))))))))))))))))))))))))))))))))))))))))))))))))))))))))))))))))))))))))))))))))))))))))))))))))))))))))))))))))))))))))))))))))))))))))))))))))))))))))))))))))))))))))))))))))))))))))))))))))))))))))))))))))))))))))))))))))))))))))))))
)
(check-sat)
